  Job Started  at 13:15.42 14th June       2019

  Number of CPUs =     1

  Total number of configurations input =      1

*  Input for Configuration =   1                                               *

  Formula = ZnS

  Number of irreducible atoms/shells =       3

  Total number atoms/shells =       3

  Dimensionality = 3               :  Bulk

  Cartesian lattice vectors (Angstroms) :

        3.854000    0.000000    0.000000
        1.927000    3.337662    0.000000
        1.927000    1.112554    3.146778

  Cell parameters (Angstroms/Degrees):

  a =       3.8540    alpha =  60.0000
  b =       3.8540    beta  =  60.0000
  c =       3.8540    gamma =  60.0000

  Initial cell volume =          40.478101 Angs**3

  Shrinking factors =      1     1     1

  Temperature of configuration =  0.000     K

  Pressure of configuration =         0.000 GPa

  Fractional coordinates of asymmetric unit :

   No.  Atomic       x           y          z         Charge      Occupancy
        Label      (Frac)      (Frac)     (Frac)        (e)         (Frac)
      1 Zn    c    0.000000    0.000000    0.000000     2.00000    1.000000
      2 S     c    0.250000    0.250000    0.250000    10.00000    1.000000
      3 S     s    0.250000    0.250000    0.250000   -12.00000    1.000000

  Brillouin zone sampling points :

  Point number          x          y          z            Weight
        1           0.000000   0.000000   0.000000     0.01626016
        2           0.025000   0.000000   0.025000     0.01626016
        3           0.050000   0.000000   0.050000     0.01626016
        4           0.075000   0.000000   0.075000     0.01626016
        5           0.100000   0.000000   0.100000     0.01626016
        6           0.125000   0.000000   0.125000     0.01626016
        7           0.150000   0.000000   0.150000     0.01626016
        8           0.175000   0.000000   0.175000     0.01626016
        9           0.200000   0.000000   0.200000     0.01626016
       10           0.225000   0.000000   0.225000     0.01626016
       11           0.250000   0.000000   0.250000     0.01626016
       12           0.275000   0.000000   0.275000     0.01626016
       13           0.300000   0.000000   0.300000     0.01626016
       14           0.325000   0.000000   0.325000     0.01626016
       15           0.350000   0.000000   0.350000     0.01626016
       16           0.375000   0.000000   0.375000     0.01626016
       17           0.400000   0.000000   0.400000     0.01626016
       18           0.425000   0.000000   0.425000     0.01626016
       19           0.450000   0.000000   0.450000     0.01626016
       20           0.475000   0.000000   0.475000     0.01626016
       21           0.500000   0.000000   0.500000     0.01626016
       22           0.525000   0.050000   0.525000     0.01626016
       23           0.550000   0.100000   0.550000     0.01626016
       24           0.575000   0.150000   0.575000     0.01626016
       25           0.600000   0.200000   0.600000     0.01626016
       26           0.625000   0.250000   0.625000     0.01626016
       27           0.650000   0.300000   0.650000     0.01626016
       28           0.675000   0.350000   0.675000     0.01626016
       29           0.700000   0.400000   0.700000     0.01626016
       30           0.725000   0.450000   0.725000     0.01626016
       31           0.750000   0.500000   0.750000     0.01626016
       32           0.775000   0.550000   0.775000     0.01626016
       33           0.800000   0.600000   0.800000     0.01626016
       34           0.825000   0.650000   0.825000     0.01626016
       35           0.850000   0.700000   0.850000     0.01626016
       36           0.875000   0.750000   0.875000     0.01626016
       37           0.900000   0.800000   0.900000     0.01626016
       38           0.925000   0.850000   0.925000     0.01626016
       39           0.950000   0.900000   0.950000     0.01626016
       40           0.975000   0.950000   0.975000     0.01626016
       41           0.000000   0.000000   0.000000     0.01626016
       42           0.975000   0.975000   0.975000     0.01626016
       43           0.950000   0.950000   0.950000     0.01626016
       44           0.925000   0.925000   0.925000     0.01626016
       45           0.900000   0.900000   0.900000     0.01626016
       46           0.875000   0.875000   0.875000     0.01626016
       47           0.850000   0.850000   0.850000     0.01626016
       48           0.825000   0.825000   0.825000     0.01626016
       49           0.800000   0.800000   0.800000     0.01626016
       50           0.775000   0.775000   0.775000     0.01626016
       51           0.750000   0.750000   0.750000     0.01626016
       52           0.725000   0.725000   0.725000     0.01626016
       53           0.700000   0.700000   0.700000     0.01626016
       54           0.675000   0.675000   0.675000     0.01626016
       55           0.650000   0.650000   0.650000     0.01626016
       56           0.625000   0.625000   0.625000     0.01626016
       57           0.600000   0.600000   0.600000     0.01626016
       58           0.575000   0.575000   0.575000     0.01626016
       59           0.550000   0.550000   0.550000     0.01626016
       60           0.525000   0.525000   0.525000     0.01626016
       61           0.500000   0.500000   0.500000     0.01626016
       62           0.500000   0.500000   0.500000     0.00813008

*  General input information                                                   *

  Species output for all configurations :

  Species    Type    Atomic    Atomic    Charge       Radii (Angs)     Library
                     Number     Mass       (e)     Cova   Ionic  VDW   Symbol
    Zn       Core       30      65.39   2.000000   1.450  0.000  2.160
    S        Core       16      32.07  10.000000   1.020  0.000  1.700
    S        Shell      16       0.00 -12.000000   1.020  0.000  0.000

  Lattice summation method               =    Ewald          (3-D)
                                         =    Parry          (2-D)
                                         =    Saunders et al (1-D)
  Accuracy factor for lattice sums       =   12.000

  Time limit = Infinity

  Maximum range for interatomic potentials =    100000.000000 Angstroms

  General interatomic potentials :

Atom  Types   Potential      Parameter       Value         Units   Cutoffs(Ang)
  1     2                                                            Min /  Max
Zn   c S    s Buckingham    Buckingham A     10.000000    eV        0.000 15.000
                            Buckingham rho   1.0000000    Ang
                            Buckingham C     0.0000000    eV*Ang^6
S    s S    s Buckingham    Buckingham A     1000.0000    eV        0.000 15.000
                            Buckingham rho   100.00000    Ang
                            Buckingham C     0.0000000    eV*Ang^6
Zn   c S    s Lennard       Lennard-Jones A  100.00000    eV*Ang^m  0.000 15.000
                            Lennard-Jones B  10.000000    eV*Ang^n
                            Exponent m         9          None
                            Exponent n         6          None
S    s S    s Lennard       Lennard-Jones A  5.0000000    eV*Ang^m  0.000 15.000
                            Lennard-Jones B  10.000000    eV*Ang^n
                            Exponent m         9          None
                            Exponent n         6          None
S    c S    s Spring (c-s)  Spring k 2       27.690000    eV*Ang^-2 0.000  0.800
                            Spring k 4       0.0000000    eV*Ang^-4

  General Three-body potentials :

  Atoms       Potential      Parameter       Value         Units   Cutoffs(Ang)
  1 / 2 / 3                                                          Min /  Max
Zn    core    Harmonic      Three-body cnst 0.77800000    eV*rad^-2 0.000  2.400
S     shel                  Three-body angl  109.47000    degrees   0.000  2.400
S     shel                  Three-body k4    0.0000000    eV*rad^-4 0.000  3.900
                            Three-body k3    0.0000000    eV*rad^-3

*  Output for configuration   1                                                *

  Components of energy :

  Interatomic potentials     =      164131.86366823 eV
  Three-body potentials      =           0.00000000 eV
  Monopole - monopole (real) =          -5.43835808 eV
  Monopole - monopole (recip)=         -34.53920770 eV
  Monopole - monopole (total)=         -39.97756578 eV
  Total lattice energy       =      164091.88610246 eV
  Total lattice energy       =        15832358.6347 kJ/(mole unit cells)

  Born effective charge tensors :

  Atom             x           y             z
    1 Zn    x      -0.2099     -0.0000     -0.0000
            y      -0.0000     -0.2099     -0.0000
            z      -0.0000     -0.0000     -0.2099
    2 S     x       0.2099      0.0000      0.0000
            y       0.0000      0.2099      0.0000
            z       0.0000      0.0000      0.2099

  Elastic Constant Matrix: (Units=GPa)

  Indices      1         2         3         4         5         6
       1  ********** 5396.1117 5519.9224 -175.0948    0.0000    0.0000
       2   5396.1117********** 5519.9224  175.0948   -0.0000    0.0000
       3   5519.9224 5519.9224**********    0.0000    0.0000   -0.0000
       4   -175.0948  175.0948    0.0000**********    0.0000    0.0000
       5      0.0000   -0.0000    0.0000    0.0000********** -175.0948
       6      0.0000    0.0000   -0.0000    0.0000 -175.0948**********

  Elastic Constant Tensor Eigenvalues: (Units=GPa)

     1 = **********     2 = **********     3 = **********
     4 = **********     5 = **********     6 = **********
  No. of non-positive eigenvalues = 6 => system is elastically unstable

  Elastic Compliance Matrix: (Units=1/GPa)

  Indices      1         2         3         4         5         6
       1   -0.000033 -0.000007 -0.000007  0.000000 -0.000000 -0.000000
       2   -0.000007 -0.000033 -0.000007 -0.000000 -0.000000 -0.000000
       3   -0.000007 -0.000007 -0.000033 -0.000000 -0.000000 -0.000000
       4    0.000000 -0.000000 -0.000000 -0.000053 -0.000000 -0.000000
       5   -0.000000 -0.000000 -0.000000 -0.000000 -0.000053  0.000000
       6   -0.000000 -0.000000 -0.000000 -0.000000  0.000000 -0.000053

  Mechanical properties :

  Convention :                    Reuss         Voigt         Hill
  Bulk  Modulus (GPa)     =   -7212.55118   -7212.55118   -7212.55118
  Shear Modulus (GPa)     =  -18948.38333  -18950.13747  -18949.26040
  Velocity S-wave (km/s)  =     -68.84223     -68.84542     -68.84383
  Velocity P-wave (km/s)  =      90.12748      90.13073      90.12910
  Compressibility (1/GPa) =   -0.00013865
  Stress axis :                     x             y             z
  Youngs Moduli (GPa)     =  -30353.64729  -30353.64729  -30433.59090
  Poissons Ratio (x)      =                    -0.20009      -0.20326
  Poissons Ratio (y)      =      -0.20009                    -0.20326
  Poissons Ratio (z)      =      -0.20272      -0.20272

  Piezoelectric Strain Matrix: (Units=C/m**2)

  Indices      1         2         3         4         5         6
       x    -0.00000   0.00000   0.00000  -0.00000  20.24759  28.63442
       y    28.63442 -28.63442   0.00000  20.24759  -0.00000  -0.00000
       z    20.24759  20.24759 -40.49519  -0.00000  -0.00000  -0.00000

  Piezoelectric Stress Matrix: (Units=10**-11 C/N)

  Indices      1         2         3         4         5         6
       x     0.00000  -0.00000  -0.00000   0.00000  -0.10602  -0.14993
       y    -0.07496   0.07496  -0.00000  -0.10602   0.00000   0.00000
       z    -0.05301  -0.05301   0.10602   0.00000   0.00000   0.00000

  Static dielectric constant tensor :

              x         y         z
       x    -2.37533   0.00000   0.00000
       y     0.00000  -2.37533   0.00000
       z     0.00000   0.00000  -2.37533

  High frequency dielectric constant tensor :

              x         y         z
       x    -2.47518   0.00000   0.00000
       y     0.00000  -2.47518   0.00000
       z     0.00000   0.00000  -2.47518

  Static refractive indices :

    1 =   -1.54121      2 =   -1.54121      3 =   -1.54121

  High frequency refractive indices :

    1 =   -1.57327      2 =   -1.57327      3 =   -1.57327

  Phonon Calculation :

  K direction for n-a correction at gamma =  1.00000  0.00000  0.00000

  Number of k points for this configuration =       62

  K point      1 =   0.000000  0.000000  0.000000  Weight =    0.016

  Frequencies (cm-1) [NB: Negative implies an imaginary mode]:

[...]

  K point     62 =   0.500000  0.500000  0.500000  Weight =    0.008

  Frequencies (cm-1) [NB: Negative implies an imaginary mode]:

-1591.39 -729.54 -729.54 -298.99  281.05  281.05

  Phonon properties (per mole of unit cells): Temperature =      0.000 K
  Zero point energy            =        0.058458 eV

  Phonon density of states :

 Frequency (cm-1) Density of States
    0.00000 |******                                                        0.049
  100.43690 |************************************************************  0.427
  200.87380 |*****************************                                 0.213
  301.31070 |*********                                                     0.067
  401.74761 |***********                                                   0.079
  502.18451 |*************                                                 0.098
  602.62141 |                                                              0.006
  703.05831 |*                                                             0.012
  803.49521 |                                                              0.000
  903.93211 |*                                                             0.012
 1004.36901 |                                                              0.000
 1104.80592 |                                                              0.006
 1205.24282 |                                                              0.000
 1305.67972 |                                                              0.000
 1406.11662 |                                                              0.006
 1506.55352 |                                                              0.000
 1606.99042 |                                                              0.000
 1707.42732 |                                                              0.000
 1807.86423 |                                                              0.006
 1908.30113 |                                                              0.000
 2008.73803 |                                                              0.006
 2109.17493 |                                                              0.000
 2209.61183 |                                                              0.000
 2310.04873 |                                                              0.000
 2410.48563 |                                                              0.000
 2510.92254 |                                                              0.000
 2611.35944 |                                                              0.000
 2711.79634 |                                                              0.000
 2812.23324 |                                                              0.000
 2912.67014 |                                                              0.000
 3013.10704 |                                                              0.006
 3113.54394 |                                                              0.000
 3213.98085 |                                                              0.000
 3314.41775 |                                                              0.000
 3414.85465 |                                                              0.000
 3515.29155 |                                                              0.000
 3615.72845 |                                                              0.000
 3716.16535 |                                                              0.000
 3816.60225 |                                                              0.000
 3917.03916 |                                                              0.000
 4017.47606 |                                                              0.000
 4117.91296 |                                                              0.000
 4218.34986 |                                                              0.000
 4318.78676 |                                                              0.000
 4419.22366 |                                                              0.000
 4519.66056 |                                                              0.000
 4620.09747 |                                                              0.000
 4720.53437 |                                                              0.000
 4820.97127 |                                                              0.000
 4921.40817 |                                                              0.000
 5021.84507 |                                                              0.000
 5122.28197 |                                                              0.000
 5222.71887 |                                                              0.000
 5323.15578 |                                                              0.000
 5423.59268 |                                                              0.000
 5524.02958 |                                                              0.000
 5624.46648 |                                                              0.000
 5724.90338 |                                                              0.000
 5825.34028 |                                                              0.000
 5925.77718 |                                                              0.000
 6026.21408 |                                                              0.000
 6126.65099 |                                                              0.000
 6227.08789 |                                                              0.000
 6327.52479 |                                                              0.006

  Phonon density of states written on channel 17

  XYZ File written as gulp.xyz

  Time to end of properties =       0.0440 seconds

  Timing analysis for GULP :

  Task / Subroutine                                          Time (Seconds)
  Calculation of reciprocal space energy and derivatives          0.0120
  Calculation of real space energy and derivatives                0.0240
  Calculation of phonons                                          0.0400

  Job Finished at 13:15.42 14th June       2019